
Gurobi 9.5.1 (linux64) logging started Wed Mar  9 18:05:19 2022

Set parameter LogFile to value "../results/logs/log_2022_03_09_17_57.csv_6_70.log"
Set parameter Method to value 3
Gurobi Optimizer version 9.5.1 build v9.5.1rc2 (linux64)
Thread count: 8 physical cores, 8 logical processors, using up to 8 threads
Optimize a model with 1039 rows, 9882 columns and 16749 nonzeros
Model fingerprint: 0xfeb4d367
Variable types: 4941 continuous, 4941 integer (4941 binary)
Coefficient statistics:
  Matrix range     [1e+00, 6e+00]
  Objective range  [1e+00, 1e+00]
  Bounds range     [1e+00, 1e+00]
  RHS range        [1e+00, 7e+01]
Found heuristic solution: objective -0.0000000
Presolve removed 585 rows and 9150 columns
Presolve time: 0.01s
Presolved: 454 rows, 732 columns, 2692 nonzeros
Extracted 154 lazy constraints
Variable types: 413 continuous, 319 integer (317 binary)

Concurrent LP optimizer: primal simplex, dual simplex, and barrier
Showing barrier log only...

Root barrier log...

Ordering time: 0.00s

Barrier statistics:
 AA' NZ     : 5.250e+02
 Factor NZ  : 1.997e+03
 Factor Ops : 2.132e+04 (less than 1 second per iteration)
 Threads    : 1

                  Objective                Residual
Iter       Primal          Dual         Primal    Dual     Compl     Time
   0   5.47159436e+02  6.03223172e+03  1.29e+00 2.61e+00  9.20e+00     0s
   1   1.81987061e+02  2.56371572e+03  6.15e-02 1.16e+00  1.62e+00     0s
   2   2.10551518e+02  4.59773465e+02  0.00e+00 8.13e-02  1.52e-01     0s
   3   3.26178608e+02  3.48571063e+02  0.00e+00 2.20e-03  1.30e-02     0s
   4   3.35936069e+02  3.36114299e+02  0.00e+00 1.78e-15  1.02e-04     0s
   5   3.36000000e+02  3.36000000e+02  0.00e+00 3.55e-15  4.80e-10     0s

Barrier solved model in 5 iterations and 0.02 seconds (0.02 work units)
Optimal objective 3.36000000e+02


Solved with dual simplex

Root relaxation: objective 3.360000e+02, 137 iterations, 0.00 seconds (0.00 work units)

    Nodes    |    Current Node    |     Objective Bounds      |     Work
 Expl Unexpl |  Obj  Depth IntInf | Incumbent    BestBd   Gap | It/Node Time

     0     0  129.41654    0  150   -0.00000  129.41654      -     -    0s
     0     0   79.29425    0   68   -0.00000   79.29425      -     -    0s
     0     0   78.70937    0   63   -0.00000   78.70937      -     -    0s
     0     0   78.70937    0   67   -0.00000   78.70937      -     -    0s
     0     0   75.15989    0   31   -0.00000   75.15989      -     -    0s
     0     0   74.75593    0   35   -0.00000   74.75593      -     -    0s
     0     0   74.74628    0   28   -0.00000   74.74628      -     -    0s
     0     0   74.29553    0   47   -0.00000   74.29553      -     -    0s
     0     0   74.29553    0   47   -0.00000   74.29553      -     -    0s
     0     2   74.29553    0   47   -0.00000   74.29553      -     -    0s
H   37    40                      69.0000000   73.51389  6.54%  28.4    0s
H  144   175                      71.0000000   73.49562  3.51%  16.9    0s
H  159   175                      72.0000000   73.49562  2.08%  17.4    0s

Cutting planes:
  Gomory: 58
  Lift-and-project: 10
  Implied bound: 23
  MIR: 132
  Inf proof: 1
  RLT: 20
  Relax-and-lift: 17
  Lazy constraints: 146

Explored 263 nodes (4837 simplex iterations) in 0.21 seconds (0.19 work units)
Thread count was 8 (of 8 available processors)

Solution count 4: 72 71 69 -0 

Optimal solution found (tolerance 1.00e-04)
Best objective 7.200000000000e+01, best bound 7.200000000000e+01, gap 0.0000%
